c ren 1 -> 1
c ren 2 -> 2
c ren 4 -> 3
c ren 6 -> 4
c ren 8 -> 5
c ren 17 -> 6
c ren 18 -> 7
c ren 21 -> 8
c ren 22 -> 9
c ren 23 -> 10
c ren 24 -> 11
c ren 27 -> 12
c ren 28 -> 13
c ren 30 -> 14
c ren 32 -> 15
c ren 34 -> 16
c ren 36 -> 17
c ren 38 -> 18
c ren 40 -> 19
c ren 42 -> 20
c ren 44 -> 21
c ren 46 -> 22
c ren 56 -> 23
c ren 70 -> 24
c ren 74 -> 25
c ren 81 -> 26
p cnf 26 60
a 1 2 3 4 5 6 9 12 13 14 15 16 17 18 19 20 21 24 25 26 0
d 7 1 24 0
d 10 6 25 0
d 22 9 26 0
e 8 11 23 0
-3 8 -11 -22 -23 0
-4 8 -10 -11 -23 -26 0
2 3 4 5 7 8 -11 -23 24 -25 0
-3 8 -11 -18 -23 0
-9 -10 11 0
9 10 11 0
12 22 23 0
8 -11 -22 -23 -26 0
-4 8 -11 -22 -23 0
8 -11 -22 -23 -25 0
1 -4 -6 -7 -8 0
-5 8 -11 -18 -23 0
1 -5 -6 -7 -8 0
12 -20 23 0
2 3 4 5 8 -11 -21 22 -23 24 25 26 0
12 -16 23 0
2 3 4 5 8 -11 17 18 19 20 21 -23 24 25 26 0
2 3 4 5 8 -11 -19 22 -23 24 25 26 0
-2 8 -11 -18 -23 0
2 3 4 5 8 -11 13 14 16 18 19 20 21 -23 24 25 26 0
-2 -7 8 -11 -23 -25 0
1 -2 -6 -7 -8 0
-3 8 -10 -11 -23 -26 0
8 -10 -11 -23 -25 -26 0
-2 8 -11 -22 -23 0
12 -21 23 0
12 -13 23 0
-7 8 -11 -23 -24 -25 0
8 -10 -11 -23 -24 -26 0
12 -19 23 0
-5 8 -10 -11 -23 -26 0
-4 8 -11 -18 -23 0
8 -11 -18 -23 -25 0
1 -2 6 7 -8 0
2 3 4 5 8 10 -11 -23 24 25 -26 0
-5 -7 8 -11 -23 -25 0
8 -11 18 19 20 21 -22 -23 0
8 -11 -18 -23 -26 0
-2 8 -10 -11 -23 -26 0
8 -11 -22 -23 -24 0
-4 -7 8 -11 -23 -25 0
12 -14 23 0
8 -11 -18 -21 -23 0
1 -3 -6 -7 -8 0
-5 8 -11 -22 -23 0
8 -11 -18 -19 -23 0
2 3 4 5 8 -11 18 22 -23 24 25 26 0
12 -17 23 0
8 -11 -18 -20 -23 0
1 -5 6 7 -8 0
-1 2 3 4 5 -6 -7 -8 0
8 -11 -18 -23 -24 0
-12 13 14 15 16 17 18 19 20 21 -22 23 0
-1 2 3 4 5 6 7 -8 0
1 -3 6 7 -8 0
12 -18 23 0
1 -4 6 7 -8 0
2 3 4 5 8 -11 -20 22 -23 24 25 26 0
-3 -7 8 -11 -23 -25 0
12 -15 23 0
